WTe2                                    
   1.00000000000000     
     3.4769999981000002    0.0000000000000000    0.0000000000000000
     0.0000000000000000    6.2490000725000003    0.0000000000000000
     0.0000000000000000    0.0000000000000000   14.0179996490000001
   W    Te
     4     8
Direct
  0.0000000000000000  0.6006199649999999  0.5000000000000000
  0.5000000000000000  0.3993800350000001  0.0000000000000000
  0.0000000000000000  0.0397999999999996  0.0152200010000030
  0.5000000000000000  0.9602000080000010  0.5152199770000010
  0.0000000000000000  0.8576099710000022  0.6552499920000017
  0.5000000000000000  0.1423900099999997  0.1552499579999989
  0.0000000000000000  0.6463099910000025  0.1111200010000033
  0.5000000000000000  0.3536900089999975  0.6111200010000033
  0.0000000000000000  0.2984500009999991  0.8598300089999995
  0.5000000000000000  0.7015499990000009  0.3598300089999995
  0.0000000000000000  0.2072200039999998  0.4038699939999972
  0.5000000000000000  0.7927799579999970  0.9038699939999972
 
  0.00000000E+00  0.00000000E+00  0.00000000E+00
  0.00000000E+00  0.00000000E+00  0.00000000E+00
  0.00000000E+00  0.00000000E+00  0.00000000E+00
  0.00000000E+00  0.00000000E+00  0.00000000E+00
  0.00000000E+00  0.00000000E+00  0.00000000E+00
  0.00000000E+00  0.00000000E+00  0.00000000E+00
  0.00000000E+00  0.00000000E+00  0.00000000E+00
  0.00000000E+00  0.00000000E+00  0.00000000E+00
  0.00000000E+00  0.00000000E+00  0.00000000E+00
  0.00000000E+00  0.00000000E+00  0.00000000E+00
  0.00000000E+00  0.00000000E+00  0.00000000E+00
  0.00000000E+00  0.00000000E+00  0.00000000E+00
